projected/problems_b25_r0_d7_m100_s666/_DIMACS/b25_d7_r0_s666_094.cnf
p cnf 321 626 25
c p show 1 2 3 4 5 6 7 8 9 10 11 12 13 14 15 16 17 18 19 20 21 22 23 24 25
-295 6 -13 0
-296 -9 0
-296 -14 0
-297 296 0
-297 295 0
-298 -7 0
-298 8 0
-299 -1 0
-299 -2 0
-300 299 0
-300 298 0
-301 300 0
-301 297 0
-302 -23 5 0
-303 -1 -19 0
-304 303 302 0
-305 -18 0
-305 22 0
-306 12 0
-306 -8 0
-307 306 0
-307 305 0
-308 307 0
-308 304 0
-309 308 301 0
-310 -2 6 0
-311 25 0
-311 -13 0
-312 311 0
-312 310 0
-313 -10 0
-313 -25 0
-314 25 0
-314 10 0
-315 314 313 0
-316 11 0
-316 -24 0
-317 316 315 0
-318 317 312 0
-319 -21 0
-319 -18 0
-320 -5 -21 0
-321 320 0
-321 319 0
-26 9 12 0
-202 -12 -9 0
-208 202 0
-208 26 0
-214 -16 -11 0
-220 214 208 0
-226 220 321 0
-232 -9 0
-232 -12 0
-238 12 0
-238 9 0
-244 238 232 0
-27 16 0
-27 11 0
-28 27 0
-28 244 0
-29 21 18 0
-30 5 0
-30 21 0
-31 30 29 0
-32 31 28 0
-33 32 0
-33 226 0
-34 33 0
-34 318 0
-35 34 0
-35 309 0
-36 8 0
-36 -22 0
-37 1 0
-37 -7 0
-38 37 36 0
-39 14 0
-39 -17 0
-40 -19 -11 0
-41 40 39 0
-42 41 0
-42 38 0
-43 -8 0
-43 21 0
-44 -13 -23 0
-45 44 0
-45 43 0
-46 -15 0
-46 20 0
-47 -20 14 0
-48 47 0
-48 46 0
-49 48 0
-49 45 0
-50 49 42 0
-51 -13 0
-51 -1 0
-52 -3 8 0
-53 52 51 0
-54 4 -5 0
-55 24 -23 0
-56 55 54 0
-57 56 53 0
-58 17 -18 0
-59 -20 2 0
-60 59 0
-60 58 0
-61 -21 0
-61 5 0
-62 19 -10 0
-63 62 61 0
-64 63 60 0
-65 64 0
-65 57 0
-66 65 50 0
-67 13 1 0
-68 3 0
-68 -8 0
-69 68 0
-69 67 0
-70 -4 0
-70 5 0
-71 -24 0
-71 23 0
-72 71 0
-72 70 0
-73 72 0
-73 69 0
-74 -17 0
-74 18 0
-75 20 0
-75 -2 0
-76 75 74 0
-77 21 -5 0
-78 -19 0
-78 10 0
-79 78 0
-79 77 0
-80 79 0
-80 76 0
-81 80 73 0
-82 -8 22 0
-83 -1 7 0
-84 83 0
-84 82 0
-85 -14 17 0
-86 19 0
-86 11 0
-87 86 0
-87 85 0
-88 87 84 0
-89 8 -21 0
-90 13 0
-90 23 0
-91 90 89 0
-92 15 -20 0
-93 20 0
-93 -14 0
-94 93 92 0
-95 94 91 0
-96 95 0
-96 88 0
-97 96 81 0
-98 97 0
-98 66 0
-99 98 35 0
-100 81 0
-100 96 0
-101 50 0
-101 65 0
-102 101 100 0
-103 -6 0
-103 13 0
-104 9 14 0
-105 104 103 0
-106 7 -8 0
-107 1 2 0
-108 107 106 0
-109 108 105 0
-110 23 0
-110 -5 0
-111 1 0
-111 19 0
-112 111 0
-112 110 0
-113 18 -22 0
-114 -12 8 0
-115 114 113 0
-116 115 112 0
-117 116 0
-117 109 0
-118 2 0
-118 -6 0
-119 -25 13 0
-120 119 118 0
-121 10 25 0
-122 -25 -10 0
-123 122 0
-123 121 0
-124 -11 24 0
-125 124 0
-125 123 0
-126 125 0
-126 120 0
-127 28 0
-127 31 0
-128 321 0
-128 220 0
-129 128 127 0
-130 129 126 0
-131 130 117 0
-132 131 102 0
-133 132 0
-133 99 0
-134 -11 0
-134 9 0
-135 134 0
-135 238 0
-136 -4 11 0
-137 -12 0
-137 -1 0
-138 137 136 0
-139 138 0
-139 135 0
-140 15 -19 0
-141 19 -15 0
-142 141 0
-142 140 0
-143 -12 13 0
-144 143 142 0
-145 12 0
-145 -13 0
-146 -15 0
-146 19 0
-147 -19 0
-147 15 0
-148 147 146 0
-149 148 145 0
-150 149 0
-150 144 0
-151 9 0
-151 20 0
-152 18 -2 0
-153 152 151 0
-154 153 150 0
-155 154 0
-155 139 0
-156 145 0
-156 148 0
-157 142 0
-157 143 0
-158 157 156 0
-159 -9 -20 0
-160 -18 0
-160 2 0
-161 160 0
-161 159 0
-162 161 0
-162 158 0
-163 11 -9 0
-164 163 202 0
-165 4 0
-165 -11 0
-166 12 1 0
-167 166 0
-167 165 0
-168 167 164 0
-169 168 0
-169 162 0
-170 169 155 0
-171 -14 -7 0
-172 -17 -20 0
-173 172 0
-173 171 0
-174 -4 -2 0
-175 2 4 0
-176 175 0
-176 174 0
-177 -12 -22 0
-178 177 0
-178 176 0
-179 178 173 0
-180 -14 8 0
-181 -10 0
-181 -8 0
-182 181 0
-182 180 0
-183 6 0
-183 -6 0
-184 -2 0
-184 -19 0
-185 184 183 0
-186 185 0
-186 182 0
-187 186 179 0
-188 187 0
-188 170 0
-189 -15 0
-189 1 0
-190 -17 -10 0
-191 190 0
-191 189 0
-192 17 0
-192 10 0
-193 15 -1 0
-194 193 0
-194 192 0
-195 194 191 0
-196 17 0
-196 11 0
-197 -9 21 0
-198 197 196 0
-199 198 195 0
-200 2 0
-200 -20 0
-201 5 17 0
-203 201 200 0
-204 -14 3 0
-205 -3 14 0
-206 205 0
-206 204 0
-207 9 1 0
-209 207 206 0
-210 209 203 0
-211 210 0
-211 199 0
-212 -11 0
-212 -14 0
-213 -12 0
-213 -17 0
-215 213 0
-215 212 0
-216 9 7 0
-217 -15 -20 0
-218 217 0
-218 216 0
-219 218 0
-219 215 0
-221 -13 0
-221 16 0
-222 -15 0
-222 -4 0
-223 222 0
-223 221 0
-224 18 0
-225 9 24 0
-227 225 224 0
-228 -9 0
-228 -24 0
-229 -18 0
-230 229 228 0
-231 230 0
-231 227 0
-233 231 0
-233 223 0
-234 233 219 0
-235 234 0
-235 211 0
-236 235 188 0
-237 192 193 0
-239 189 190 0
-240 239 0
-240 237 0
-241 -17 -11 0
-242 9 0
-242 -21 0
-243 242 0
-243 241 0
-245 243 0
-245 240 0
-246 -2 20 0
-247 -5 0
-247 -17 0
-248 247 0
-248 246 0
-249 14 0
-249 -3 0
-250 3 0
-250 -14 0
-251 250 249 0
-252 -9 0
-252 -1 0
-253 252 0
-253 251 0
-254 253 0
-254 248 0
-255 254 245 0
-256 11 14 0
-257 12 17 0
-258 257 256 0
-259 -9 0
-259 -7 0
-260 15 0
-260 20 0
-261 260 259 0
-262 261 258 0
-263 13 -16 0
-264 15 4 0
-265 264 263 0
-266 228 0
-266 229 0
-267 224 0
-267 225 0
-268 267 266 0
-269 268 265 0
-270 269 0
-270 262 0
-271 270 255 0
-272 162 168 0
-273 139 154 0
-274 273 0
-274 272 0
-275 14 0
-275 7 0
-276 17 0
-276 20 0
-277 276 275 0
-278 4 0
-278 2 0
-279 -2 0
-279 -4 0
-280 279 278 0
-281 12 0
-281 22 0
-282 281 280 0
-283 282 0
-283 277 0
-284 14 0
-284 -8 0
-285 10 8 0
-286 285 284 0
-287 -6 6 0
-288 2 19 0
-289 288 0
-289 287 0
-290 289 286 0
-291 290 0
-291 283 0
-292 291 274 0
-293 292 271 0
-294 293 0
-294 236 0
294 0
133 0
-67 -51 0
-52 -68 0
-68 -52 0
-69 -53 0
-54 -70 0
-55 -71 0
-56 -72 0
-72 -56 0
-73 -57 0
-57 -73 0
-74 -58 0
-58 -74 0
-75 -59 0
-59 -75 0
-60 -76 0
-76 -60 0
-77 -61 0
-78 -62 0
-79 -63 0
-80 -64 0
-64 -80 0
-65 -81 0
-81 -65 0
-82 -36 0
-83 -37 0
-84 -38 0
-38 -84 0
-85 -39 0
-39 -85 0
-86 -40 0
-40 -86 0
-41 -87 0
-42 -88 0
-89 -43 0
-44 -90 0
-90 -44 0
-91 -45 0
-45 -91 0
-46 -92 0
-92 -46 0
-93 -47 0
-94 -48 0
-48 -94 0
-49 -95 0
-50 -96 0
-98 -102 0
-102 -98 0
-103 -295 0
-104 -296 0
-105 -297 0
-298 -106 0
-107 -299 0
-299 -107 0
-300 -108 0
-108 -300 0
-109 -301 0
-302 -110 0
-111 -303 0
-303 -111 0
-304 -112 0
-112 -304 0
-305 -113 0
-113 -305 0
-114 -306 0
-115 -307 0
-116 -308 0
-117 -309 0
-118 -310 0
-311 -119 0
-119 -311 0
-120 -312 0
-312 -120 0
-123 -315 0
-124 -316 0
-125 -317 0
-317 -125 0
-318 -126 0
-126 -318 0
-208 -244 0
-244 -208 0
-214 -27 0
-27 -214 0
-28 -220 0
-319 -29 0
-30 -320 0
-320 -30 0
-321 -31 0
-33 -129 0
-129 -33 0
-130 -34 0
-131 -35 0
-35 -131 0
-192 -190 0
-190 -192 0
-193 -189 0
-240 -195 0
-196 -241 0
-242 -197 0
-197 -242 0
-198 -243 0
-243 -198 0
-245 -199 0
-246 -200 0
-200 -246 0
-201 -247 0
-203 -248 0
-206 -251 0
-252 -207 0
-207 -252 0
-209 -253 0
-210 -254 0
-254 -210 0
-255 -211 0
-212 -256 0
-257 -213 0
-213 -257 0
-215 -258 0
-258 -215 0
-216 -259 0
-259 -216 0
-217 -260 0
-260 -217 0
-261 -218 0
-262 -219 0
-219 -262 0
-221 -263 0
-264 -222 0
-222 -264 0
-223 -265 0
-228 -225 0
-224 -229 0
-231 -268 0
-233 -269 0
-234 -270 0
-270 -234 0
-271 -235 0
-143 -145 0
-145 -143 0
-142 -148 0
-150 -158 0
-158 -150 0
-159 -151 0
-151 -159 0
-152 -160 0
-153 -161 0
-161 -153 0
-162 -154 0
-154 -162 0
-202 -238 0
-238 -202 0
-134 -163 0
-135 -164 0
-136 -165 0
-137 -166 0
-138 -167 0
-139 -168 0
-168 -139 0
-274 -170 0
-275 -171 0
-171 -275 0
-172 -276 0
-173 -277 0
-277 -173 0
-176 -280 0
-281 -177 0
-177 -281 0
-178 -282 0
-282 -178 0
-283 -179 0
-179 -283 0
-180 -284 0
-181 -285 0
-182 -286 0
-287 -183 0
-183 -287 0
-184 -288 0
-185 -289 0
-186 -290 0
-187 -291 0
-291 -187 0
-292 -188 0
-188 -292 0
