projected/problems_b25_r0_d7_m100_s666/b25_d7_r0_s666_094.smt2
(set-logic QF_UF)
(declare-fun A0 () Bool)
(declare-fun A1 () Bool)
(declare-fun A2 () Bool)
(declare-fun A3 () Bool)
(declare-fun A4 () Bool)
(declare-fun A5 () Bool)
(declare-fun A6 () Bool)
(declare-fun A7 () Bool)
(declare-fun A8 () Bool)
(declare-fun A9 () Bool)
(declare-fun A10 () Bool)
(declare-fun A11 () Bool)
(declare-fun A12 () Bool)
(declare-fun A13 () Bool)
(declare-fun A14 () Bool)
(declare-fun A15 () Bool)
(declare-fun A16 () Bool)
(declare-fun A17 () Bool)
(declare-fun A18 () Bool)
(declare-fun A19 () Bool)
(declare-fun A20 () Bool)
(declare-fun A21 () Bool)
(declare-fun A22 () Bool)
(declare-fun A23 () Bool)
(declare-fun A24 () Bool)
(assert (let ((.def_0 (or A12 A0))) (let ((.def_1 (not A2))) (let ((.def_2 (or .def_1 A7))) (let ((.def_3 (not .def_2))) (let ((.def_4 (and .def_3 .def_0))) (let ((.def_5 (not A4))) (let ((.def_6 (or A3 .def_5))) (let ((.def_7 (not A22))) (let ((.def_8 (or A23 .def_7))) (let ((.def_9 (or .def_8 .def_6))) (let ((.def_10 (not .def_9))) (let ((.def_11 (and .def_10 .def_4))) (let ((.def_12 (not .def_11))) (let ((.def_13 (not A16))) (let ((.def_14 (and .def_13 A17))) (let ((.def_15 (not .def_14))) (let ((.def_16 (not A1))) (let ((.def_17 (and A19 .def_16))) (let ((.def_18 (not .def_17))) (let ((.def_19 (and .def_18 .def_15))) (let ((.def_20 (not .def_19))) (let ((.def_21 (or A20 .def_5))) (let ((.def_22 (not A18))) (let ((.def_23 (and .def_22 A9))) (let ((.def_24 (and .def_23 .def_21))) (let ((.def_25 (and .def_24 .def_20))) (let ((.def_26 (not .def_25))) (let ((.def_27 (and .def_26 .def_12))) (let ((.def_28 (not .def_27))) (let ((.def_29 (not A7))) (let ((.def_30 (or .def_29 A21))) (let ((.def_31 (not A0))) (let ((.def_32 (or .def_31 A6))) (let ((.def_33 (and .def_32 .def_30))) (let ((.def_34 (not .def_33))) (let ((.def_35 (not A13))) (let ((.def_36 (or .def_35 A16))) (let ((.def_37 (not .def_36))) (let ((.def_38 (and A18 A10))) (let ((.def_39 (not .def_38))) (let ((.def_40 (or .def_39 .def_37))) (let ((.def_41 (and .def_40 .def_34))) (let ((.def_42 (not A20))) (let ((.def_43 (or A7 .def_42))) (let ((.def_44 (not A12))) (let ((.def_45 (or .def_44 .def_7))) (let ((.def_46 (not .def_45))) (let ((.def_47 (or .def_46 .def_43))) (let ((.def_48 (not .def_47))) (let ((.def_49 (not A14))) (let ((.def_50 (and .def_49 A19))) (let ((.def_51 (not .def_50))) (let ((.def_52 (and A19 .def_35))) (let ((.def_53 (or .def_52 .def_51))) (let ((.def_54 (not .def_53))) (let ((.def_55 (and .def_54 .def_48))) (let ((.def_56 (or .def_55 .def_41))) (let ((.def_57 (= .def_56 .def_28))) (let ((.def_58 (not .def_57))) (let ((.def_59 (not A5))) (let ((.def_60 (and .def_59 A12))) (let ((.def_61 (or A8 A13))) (let ((.def_62 (or .def_61 .def_60))) (let ((.def_63 (not A6))) (let ((.def_64 (and .def_63 A7))) (let ((.def_65 (or A0 A1))) (let ((.def_66 (not .def_65))) (let ((.def_67 (and .def_66 .def_64))) (let ((.def_68 (not .def_67))) (let ((.def_69 (or .def_68 .def_62))) (let ((.def_70 (or .def_7 A4))) (let ((.def_71 (and A0 A18))) (let ((.def_72 (not .def_71))) (let ((.def_73 (or .def_72 .def_70))) (let ((.def_74 (not .def_73))) (let ((.def_75 (not A17))) (let ((.def_76 (and .def_75 A21))) (let ((.def_77 (not .def_76))) (let ((.def_78 (not A11))) (let ((.def_79 (or .def_78 A7))) (let ((.def_80 (or .def_79 .def_77))) (let ((.def_81 (or .def_80 .def_74))) (let ((.def_82 (and .def_81 .def_69))) (let ((.def_83 (and A1 .def_59))) (let ((.def_84 (and A24 .def_44))) (let ((.def_85 (not .def_84))) (let ((.def_86 (or .def_85 .def_83))) (let ((.def_87 (not .def_86))) (let ((.def_88 (not A9))) (let ((.def_89 (= A24 .def_88))) (let ((.def_90 (not A10))) (let ((.def_91 (or .def_90 A23))) (let ((.def_92 (and .def_91 .def_89))) (let ((.def_93 (not .def_92))) (let ((.def_94 (or .def_93 .def_87))) (let ((.def_95 (not .def_94))) (let ((.def_96 (not A8))) (let ((.def_97 (= A11 .def_96))) (let ((.def_98 (not .def_97))) (let ((.def_99 (not A15))) (let ((.def_100 (or .def_99 .def_90))) (let ((.def_101 (not .def_100))) (let ((.def_102 (and .def_101 .def_98))) (let ((.def_103 (and .def_42 .def_75))) (let ((.def_104 (and A4 A20))) (let ((.def_105 (not .def_104))) (let ((.def_106 (and .def_105 .def_103))) (let ((.def_107 (= .def_106 .def_102))) (let ((.def_108 (not .def_107))) (let ((.def_109 (or .def_108 .def_95))) (let ((.def_110 (or .def_109 .def_82))) (let ((.def_111 (not .def_110))) (let ((.def_112 (= .def_111 .def_58))) (let ((.def_113 (not .def_112))) (let ((.def_114 (and A16 A9))) (let ((.def_115 (not .def_114))) (let ((.def_116 (or A14 .def_31))) (let ((.def_117 (= .def_116 .def_115))) (let ((.def_118 (and A16 A10))) (let ((.def_119 (and A8 .def_42))) (let ((.def_120 (not .def_119))) (let ((.def_121 (or .def_120 .def_118))) (let ((.def_122 (not .def_121))) (let ((.def_123 (and .def_122 .def_117))) (let ((.def_124 (or .def_16 A19))) (let ((.def_125 (not .def_124))) (let ((.def_126 (or A4 A16))) (let ((.def_127 (or .def_126 .def_125))) (let ((.def_128 (= A2 A13))) (let ((.def_129 (and .def_96 .def_31))) (let ((.def_130 (not .def_129))) (let ((.def_131 (or .def_130 .def_128))) (let ((.def_132 (or .def_131 .def_127))) (let ((.def_133 (not .def_132))) (let ((.def_134 (or .def_133 .def_123))) (let ((.def_135 (and .def_90 .def_35))) (let ((.def_136 (or A11 A16))) (let ((.def_137 (not .def_136))) (let ((.def_138 (and .def_137 .def_135))) (let ((.def_139 (not .def_138))) (let ((.def_140 (or A8 A6))) (let ((.def_141 (not .def_140))) (let ((.def_142 (not A19))) (let ((.def_143 (or .def_49 .def_142))) (let ((.def_144 (not .def_143))) (let ((.def_145 (or .def_144 .def_141))) (let ((.def_146 (or .def_145 .def_139))) (let ((.def_147 (not .def_146))) (let ((.def_148 (and .def_44 A15))) (let ((.def_149 (or A14 A3))) (let ((.def_150 (not .def_149))) (let ((.def_151 (and .def_150 .def_148))) (let ((.def_152 (not A23))) (let ((.def_153 (and .def_96 .def_152))) (let ((.def_154 (or A17 A17))) (let ((.def_155 (= .def_154 .def_153))) (let ((.def_156 (and .def_155 .def_151))) (let ((.def_157 (or .def_156 .def_147))) (let ((.def_158 (not .def_157))) (let ((.def_159 (or .def_158 .def_134))) (let ((.def_160 (or .def_78 A12))) (let ((.def_161 (not .def_160))) (let ((.def_162 (= .def_22 .def_49))) (let ((.def_163 (= .def_162 .def_161))) (let ((.def_164 (not .def_163))) (let ((.def_165 (or .def_96 .def_142))) (let ((.def_166 (not .def_165))) (let ((.def_167 (or A17 .def_16))) (let ((.def_168 (or .def_167 .def_166))) (let ((.def_169 (not .def_168))) (let ((.def_170 (and .def_169 .def_164))) (let ((.def_171 (not .def_170))) (let ((.def_172 (or .def_78 .def_96))) (let ((.def_173 (not .def_172))) (let ((.def_174 (and .def_90 A8))) (let ((.def_175 (and .def_174 .def_173))) (let ((.def_176 (not A3))) (let ((.def_177 (or .def_176 A10))) (let ((.def_178 (and .def_78 .def_31))) (let ((.def_179 (or .def_178 .def_177))) (let ((.def_180 (and .def_179 .def_175))) (let ((.def_181 (not .def_180))) (let ((.def_182 (= .def_181 .def_171))) (let ((.def_183 (and A13 A6))) (let ((.def_184 (not .def_183))) (let ((.def_185 (or .def_13 .def_142))) (let ((.def_186 (and .def_185 .def_184))) (let ((.def_187 (not .def_186))) (let ((.def_188 (= .def_16 A3))) (let ((.def_189 (and A11 A21))) (let ((.def_190 (not .def_189))) (let ((.def_191 (and .def_190 .def_188))) (let ((.def_192 (not .def_191))) (let ((.def_193 (and .def_192 .def_187))) (let ((.def_194 (not .def_193))) (let ((.def_195 (or .def_35 A7))) (let ((.def_196 (and .def_88 .def_29))) (let ((.def_197 (and .def_196 .def_195))) (let ((.def_198 (or .def_59 A5))) (let ((.def_199 (not .def_198))) (let ((.def_200 (and .def_16 .def_22))) (let ((.def_201 (or .def_200 .def_199))) (let ((.def_202 (and .def_201 .def_197))) (let ((.def_203 (or .def_202 .def_194))) (let ((.def_204 (not .def_203))) (let ((.def_205 (or .def_204 .def_182))) (let ((.def_206 (not .def_205))) (let ((.def_207 (= .def_206 .def_159))) (let ((.def_208 (not .def_207))) (let ((.def_209 (or .def_208 .def_113))) (let ((.def_210 (not .def_209))) .def_210))))))))))))))))))))))))))))))))))))))))))))))))))))))))))))))))))))))))))))))))))))))))))))))))))))))))))))))))))))))))))))))))))))))))))))))))))))))))))))))))))))))))))))))))))))))))))))))))))))))))))))))))))))
(check-sat)
